
# REBO potential

pair_style  airebo 2.5 1 0
pair_coeff  * * /home1/02904/pwang0/lammps-1Feb14/potentials/CH.airebo C C




